webassembly/ejemplos_dzn/folder7_json_72.dzn
TERM = { '.', 's(2)', 's(5)', 's(4)', 'in_1', 'local_0', 'in_2', 'in_4', 'in_3', 's(6)', 's(1)', 's(0)', 's(3)', 'in_0'};
null = '.';
s = 7;
n = 10;
ndeps = 3;
max_registers_sz = 4;
NR = 1;
registers = [|'local_0', 'in_0'|];
dependencies = [|'i32.store_1', 'call[function_index(0)]_2', |'call[function_index(0)]_2', 'i32.load16_u_3', |'call[function_index(0)]_2', 'i32.load8_s_5'|];
GET_ENUM = { GET1, GET2, GET3, GET4, GET5};
SET_ENUM = { SET1, SET2, SET3, SET4, SET5};
TEE_ENUM = { TEE1, TEE2, TEE3, TEE4, TEE5};
N = 6;
OP = { 'i32.add_0', 'call[function_index(0)]_2', 'i32.store_1', 'i32.load16_u_3', 'i32.const_0', 'i32.load8_s_5' };
in_ops = [2, 3, 2, 1, 0, 1 ];
out_ops = [1, 3, 0, 1, 1, 1 ];
in1 = ['s(4)', 'in_2', 'in_0', 's(2)', '.', 's(6)' ];
in2 = ['s(3)', 'in_3', 'in_1', '.', '.', '.' ];
in3 = ['.', 'in_4', '.', '.', '.', '.' ];
out1 = ['s(5)', 's(2)', '.', 's(3)', 's(6)', 's(4)' ];
out2 = ['.', 's(1)', '.', '.', '.', '.' ];
out3 = ['.', 's(0)', '.', '.', '.', '.' ];
comm = [true, false, false, false, false, false ];
gas = [1, 1, 1, 1, 1, 1 ];
sz = [1, 1, 1, 1, 1, 1 ];
stor = [false, true, true, false, false, false ];
lb = [ 1, 1, 1, 1, 1, 1 ];
ub = [ 7, 7, 7, 7, 7, 7 ];
startstack = [ 'in_0', 'in_1', 'in_2', 'in_3', 'in_4', null, null, null, null, null ];
endstack = [ 's(5)', 's(1)', 's(0)', null, null, null, null, null, null, null ];
